* UNK main file generated by charmmgen
* author: Victor Bazterra 2004 CHPC
* 

Read rtf card name ligand.pdb.mol2_CHARMM.rtf

Read param card name ligand.pdb.mol2_CHARMM.prm

Read sequence card
* Reading the coordinates of residue
* 
    1
UNK
Generate UNK setup
Read coor card free
* Residues coordinate
* 
   59
    1    1 UNK  O      0.21900  -2.02800   0.47400
    2    1 UNK  O1     4.19200   0.68200   1.59900
    3    1 UNK  O2    -1.02600  -1.48100  -2.82100
    4    1 UNK  O3     0.87200  -2.52400  -2.15500
    5    1 UNK  N     -3.93600   0.11300  -0.36300
    6    1 UNK  N1     0.67300   1.17200  -1.68400
    7    1 UNK  C     -1.23000   0.36300   0.23400
    8    1 UNK  C1    -1.71900  -0.83800  -0.26000
    9    1 UNK  C2     0.18800   0.45800   0.53500
   10    1 UNK  C3    -0.83400  -2.01900  -0.48700
   11    1 UNK  C4     2.45200   0.94300  -0.08400
   12    1 UNK  C5     0.18600  -3.20400   1.26800
   13    1 UNK  C6     1.09200   0.86900  -0.44100
   14    1 UNK  C7     3.38400   1.32400  -1.05700
   15    1 UNK  C8    -2.09500   1.44800   0.43300
   16    1 UNK  C9     2.87200   0.62100   1.21700
   17    1 UNK  C10    4.83800   1.34000  -0.67900
   18    1 UNK  C11   -3.06900  -0.91000  -0.54000
   19    1 UNK  C12    0.60600   0.11500   1.82500
   20    1 UNK  C13   -3.45900   1.27700   0.11700
   21    1 UNK  C14    4.94900   1.61700   0.81700
   22    1 UNK  C15    1.95200   0.18900   2.16800
   23    1 UNK  C16    0.34100  -4.41600   0.35000
   24    1 UNK  C17    1.34900  -3.12500   2.25500
   25    1 UNK  C18   -1.14800  -3.25200   2.01200
   26    1 UNK  C19    2.95700   1.61700  -2.34600
   27    1 UNK  C20   -1.63100   2.67700   0.93200
   28    1 UNK  C21   -0.22700  -2.05600  -1.88500
   29    1 UNK  C22   -3.66400  -2.17100  -1.07600
   30    1 UNK  C23    1.60200   1.53400  -2.60100
   31    1 UNK  C24   -4.31700   2.35500   0.31400
   32    1 UNK  C25   -2.51100   3.73800   1.11900
   33    1 UNK  C26   -3.85600   3.57700   0.81000
   34    1 UNK  H     -1.44100  -2.92000  -0.45500
   35    1 UNK  H1     5.26700   0.35900  -0.91600
   36    1 UNK  H2     5.38200   2.10800  -1.24000
   37    1 UNK  H3    -0.11100  -0.19000   2.58400
   38    1 UNK  H4     5.99500   1.53400   1.13000
   39    1 UNK  H5     4.61800   2.63500   1.06400
   40    1 UNK  H6     2.27200  -0.06800   3.17300
   41    1 UNK  H7    -0.50900  -4.62500  -0.30400
   42    1 UNK  H8     1.22500  -4.31100  -0.28900
   43    1 UNK  H9     0.48200  -5.32500   0.94800
   44    1 UNK  H10    1.17500  -2.36600   3.02100
   45    1 UNK  H11    2.28500  -2.87400   1.74400
   46    1 UNK  H12    1.48900  -4.07700   2.77900
   47    1 UNK  H13   -1.38400  -2.28800   2.47600
   48    1 UNK  H14   -2.00200  -3.52700   1.38800
   49    1 UNK  H15   -1.11000  -4.00300   2.81000
   50    1 UNK  H16    3.65400   1.90100  -3.12700
   51    1 UNK  H17   -0.58800   2.84600   1.18500
   52    1 UNK  H18   -3.17400  -2.51200  -1.99100
   53    1 UNK  H19   -4.71900  -2.01000  -1.33200
   54    1 UNK  H20   -3.64300  -2.96500  -0.32300
   55    1 UNK  H21    1.20800   1.75700  -3.58700
   56    1 UNK  H22   -5.37500   2.25400   0.08000
   57    1 UNK  H23   -2.14900   4.68700   1.50500
   58    1 UNK  H24   -4.55000   4.40000   0.95300
   59    1 UNK  H25   -0.61600  -1.49700  -3.71200
Energy ihbfrq 0 inbfrq -1
Open write card unit 14 name tmp.out
Write energy card unit 14
* UNK energy before the optimization
* 
Minimise Abnr Nstep 5000 Tolgrd 0.00001
Write energy card unit 14
* UNK energy after optimization
* 
Write coor card unit 14
* UNK energy after optimization
*